c
c Renamed file of x2.cnf 
c Variables are renamed according to left2right.ord 
c
c Date: Thu Apr 29 14:50:55 PDT 2004 by (jinbo)
c Host: Linux solution 2.4.18-4smp #1 SMP Thu May 2 18:32:34 EDT 2002 i686 unknown
c
c Copyright (c) 2001 Fadi A. Aloul.
c
p cnf 62 166
35 -37 0
37 -35 0
-37 38 0
50 -48 0
48 -50 0
-48 38 0
41 -40 0
40 -41 0
-40 38 0
45 -44 0
44 -45 0
-44 38 0
-21 -29 0
-23 -29 0
29 21 23 0
-29 38 0
-38 37 48 40 44 29 0
50 -49 0
49 -50 0
-49 47 0
41 -42 0
42 -41 0
-42 47 0
45 -46 0
46 -45 0
-46 47 0
22 -30 0
-23 -30 0
30 -22 23 0
-30 47 0
-47 49 42 46 30 0
-22 -26 0
-21 -26 0
-23 -26 0
26 22 21 23 0
-26 52 0
-52 26 0
52 -51 0
51 -52 0
-51 32 0
35 -36 0
36 -35 0
-36 32 0
41 -39 0
39 -41 0
-39 32 0
45 -43 0
43 -45 0
-43 32 0
12 -13 0
13 -12 0
-13 32 0
8 -6 0
6 -8 0
-6 32 0
9 -7 0
7 -9 0
-7 32 0
22 -24 0
-23 -24 0
24 -22 23 0
-24 32 0
-32 51 36 39 43 13 6 7 24 0
52 -61 0
61 -52 0
-61 60 0
50 -59 0
59 -50 0
-59 60 0
41 -57 0
57 -41 0
-57 60 0
45 -58 0
58 -45 0
-58 60 0
-56 -62 0
62 56 0
-62 60 0
-60 61 59 57 58 62 0
2 -3 0
3 -2 0
-3 15 0
-56 -55 0
55 56 0
-55 15 0
-21 -20 0
-23 -20 0
20 21 23 0
-20 15 0
-23 -16 0
22 -16 0
18 -16 0
-17 -16 0
16 23 -22 -18 17 0
-16 15 0
-21 -11 0
-8 -11 0
-9 -11 0
12 -11 0
-22 -11 0
11 21 8 9 -12 22 0
-11 15 0
21 -14 0
23 -14 0
-8 -14 0
-9 -14 0
12 -14 0
22 -14 0
14 -21 -23 8 9 -12 -22 0
-14 15 0
-15 3 55 20 16 11 14 0
2 -1 0
1 -2 0
-1 33 0
52 -53 0
53 -52 0
-53 33 0
35 -34 0
34 -35 0
-34 33 0
-56 -54 0
54 56 0
-54 33 0
-8 -10 0
-9 -10 0
-12 -10 0
22 -10 0
23 -10 0
10 8 9 12 -22 -23 0
-10 33 0
22 -19 0
-23 -19 0
18 -19 0
17 -19 0
21 -19 0
19 -22 23 -18 -17 -21 0
-19 33 0
-33 1 53 34 54 10 19 0
-22 -28 0
21 -28 0
28 22 -21 0
-28 50 0
-50 28 0
22 -25 0
-21 -25 0
23 -25 0
25 -22 21 -23 0
-25 35 0
-35 25 0
4 -5 0
-22 -5 0
21 -5 0
23 -5 0
5 -4 22 -21 -23 0
-5 2 0
-2 5 0
-22 -31 0
23 -31 0
31 22 -23 0
-31 45 0
-45 31 0
21 -27 0
23 -27 0
27 -21 -23 0
-27 41 0
-41 27 0
